[runlim] version:		2.0.0rc12
[runlim] host:			ap-Precision-7550
[runlim] time limit:		311040000 seconds
[runlim] real time limit:	600 seconds
[runlim] space limit:		14000 MB
[runlim] argv[0]:		python3
[runlim] argv[1]:		-u
[runlim] argv[2]:		mip_no.py
[runlim] argv[3]:		graph10
[runlim] start:			Wed Mar 25 02:42:50 2026
[runlim] child:			68030
--- Building MIP model for 680 variables ---
--- Solving with CPLEX MIP ---
Version identifier: 22.1.1.0 | 2022-11-28 | 9160aff4d
CPXPARAM_Read_DataCheck                          1
CPXPARAM_MIP_Tolerances_MIPGap                   0
Legacy callback                                  i
Tried aggregator 1 time.
[runlim] sample:		13.61 time, 10.01 real, 845 MB, 2.57 load
Presolve has eliminated 1715239 rows and 179 columns...
MIP Presolve eliminated 1715239 rows and 179 columns.
MIP Presolve modified 117452 coefficients.
Reduced MIP has 109927 rows, 26845 columns, and 1910707 nonzeros.
Reduced MIP has 26845 binaries, 0 generals, 0 SOSs, and 0 indicators.
Presolve time = 12.54 sec. (16593.67 ticks)
[runlim] sample:		34.80 time, 20.01 real, 639 MB, 2.48 load
Probing fixed 283 vars, tightened 0 bounds.
Probing changed sense of 13349 constraints.
Probing time = 0.30 sec. (108.32 ticks)
Tried aggregator 1 time.
MIP Presolve eliminated 21704 rows and 13542 columns.
MIP Presolve modified 21520 coefficients.
Reduced MIP has 88190 rows, 13303 columns, and 1948834 nonzeros.
Reduced MIP has 13303 binaries, 0 generals, 0 SOSs, and 0 indicators.
Presolve time = 5.82 sec. (9382.37 ticks)
Probing time = 0.04 sec. (6.74 ticks)
Tried aggregator 1 time.
[runlim] sample:		55.12 time, 30.01 real, 836 MB, 2.56 load
Detecting symmetries...
Reduced MIP has 88190 rows, 13303 columns, and 1948834 nonzeros.
Reduced MIP has 13303 binaries, 0 generals, 0 SOSs, and 0 indicators.
Presolve time = 1.99 sec. (2571.43 ticks)
Probing time = 0.03 sec. (6.78 ticks)
Clique table members: 89962.
MIP emphasis: balance optimality and feasibility.
MIP search method: dynamic search.
Parallel mode: deterministic, using up to 12 threads.
[runlim] sample:		132.81 time, 40.02 real, 1380 MB, 3.65 load
[runlim] sample:		215.62 time, 50.01 real, 1346 MB, 4.45 load
[runlim] sample:		265.61 time, 60.01 real, 1349 MB, 4.54 load
[runlim] sample:		315.58 time, 70.01 real, 1349 MB, 4.61 load
[runlim] sample:		365.58 time, 80.01 real, 1349 MB, 4.67 load
[runlim] sample:		411.91 time, 90.01 real, 1349 MB, 4.56 load
Root relaxation solution time = 68.27 sec. (21020.02 ticks)

        Nodes                                         Cuts/
   Node  Left     Objective  IInf  Best Integer    Best Bound    ItCnt     Gap

      0     0       14.0000  2746                     14.0000       16         
[runlim] sample:		441.78 time, 100.01 real, 1374 MB, 4.32 load
[runlim] sample:		471.77 time, 110.01 real, 1389 MB, 4.12 load
[runlim] sample:		501.77 time, 120.01 real, 1484 MB, 3.94 load
[runlim] sample:		531.75 time, 130.01 real, 1642 MB, 3.80 load
[runlim] sample:		561.74 time, 140.01 real, 1649 MB, 3.68 load
[runlim] sample:		591.74 time, 150.01 real, 1672 MB, 3.57 load
[runlim] sample:		621.73 time, 160.01 real, 1675 MB, 3.48 load
[runlim] sample:		651.71 time, 170.01 real, 1687 MB, 3.41 load
[runlim] sample:		681.70 time, 180.01 real, 1687 MB, 3.35 load
[runlim] sample:		711.70 time, 190.01 real, 1688 MB, 3.29 load
[runlim] sample:		741.69 time, 200.01 real, 1689 MB, 3.25 load
[runlim] sample:		771.68 time, 210.01 real, 1690 MB, 3.21 load
[runlim] sample:		801.67 time, 220.01 real, 1690 MB, 3.18 load
[runlim] sample:		831.66 time, 230.01 real, 1690 MB, 3.15 load
[runlim] sample:		861.65 time, 240.01 real, 1691 MB, 3.12 load
[runlim] sample:		891.64 time, 250.01 real, 1691 MB, 3.10 load
[runlim] sample:		921.64 time, 260.01 real, 1692 MB, 3.09 load
[runlim] sample:		951.63 time, 270.01 real, 1692 MB, 3.07 load
[runlim] sample:		981.62 time, 280.01 real, 1705 MB, 3.06 load
[runlim] sample:		1011.62 time, 290.01 real, 1706 MB, 3.05 load
[runlim] sample:		1041.61 time, 300.01 real, 1785 MB, 3.04 load
[runlim] sample:		1071.61 time, 310.01 real, 1786 MB, 3.04 load
[runlim] sample:		1101.60 time, 320.01 real, 1786 MB, 3.03 load
[runlim] sample:		1131.60 time, 330.01 real, 1789 MB, 3.03 load
[runlim] sample:		1161.59 time, 340.01 real, 1789 MB, 3.02 load
[runlim] sample:		1191.59 time, 350.01 real, 1789 MB, 3.02 load
[runlim] sample:		1221.58 time, 360.01 real, 1801 MB, 3.01 load
[runlim] sample:		1251.58 time, 370.01 real, 1804 MB, 3.01 load
[runlim] sample:		1281.57 time, 380.01 real, 1805 MB, 3.01 load
[runlim] sample:		1311.57 time, 390.01 real, 1805 MB, 3.01 load
[runlim] sample:		1341.56 time, 400.01 real, 1805 MB, 3.01 load
[runlim] sample:		1371.56 time, 410.01 real, 1809 MB, 3.08 load
[runlim] sample:		1401.55 time, 420.01 real, 1812 MB, 3.15 load
[runlim] sample:		1431.55 time, 430.01 real, 1812 MB, 3.12 load
[runlim] sample:		1461.54 time, 440.01 real, 1812 MB, 3.10 load
[runlim] sample:		1491.54 time, 450.01 real, 1812 MB, 3.09 load
[runlim] sample:		1521.54 time, 460.01 real, 1812 MB, 3.07 load
[runlim] sample:		1551.54 time, 470.01 real, 1871 MB, 3.06 load
[runlim] sample:		1581.54 time, 480.01 real, 1889 MB, 3.13 load
[runlim] sample:		1611.53 time, 490.01 real, 1890 MB, 3.11 load
[runlim] sample:		1641.53 time, 500.01 real, 1892 MB, 3.16 load
[runlim] sample:		1671.53 time, 510.01 real, 1892 MB, 3.14 load
[runlim] sample:		1701.52 time, 520.01 real, 1894 MB, 3.19 load
[runlim] sample:		1731.52 time, 530.01 real, 1894 MB, 3.16 load
[runlim] sample:		1761.51 time, 540.01 real, 1895 MB, 3.21 load
[runlim] sample:		1791.51 time, 550.01 real, 1896 MB, 3.18 load
[runlim] sample:		1821.51 time, 560.01 real, 1896 MB, 3.22 load
[runlim] sample:		1851.51 time, 570.01 real, 1897 MB, 3.19 load
[runlim] sample:		1881.50 time, 580.01 real, 1897 MB, 3.23 load
[runlim] sample:		1911.49 time, 590.01 real, 1898 MB, 3.20 load
[runlim] sample:		1941.49 time, 600.01 real, 1898 MB, 3.17 load
[runlim] end:			Wed Mar 25 02:52:51 2026
[runlim] status:		out of time
[runlim] result:		2
[runlim] children:		1
[runlim] processes:		2
[runlim] real:			601.06 seconds
[runlim] time:			1941.49 seconds
[runlim] space:			1898 MB
[runlim] load:			4.70 maximum
[runlim] samples:		6000
